Route #1: 54 20 41 12 26 64 51 39 40 56 24 4
Route #2: 49 66 58 60 13 6 62 19 68 33 29 43 59 11 7 25 37 30
Route #3: 32 21 23 55 35 45 10 46 31 67 63 3 17 9 42 52 50 18 22 27 53 38
Route #4: 61 47 65 34 48 15 44 28 14 8 5 36
Route #5: 57 16 2
Route #6: 1
Route #7: 
Route #8: 
Route #9: 
cost 1505.9801685530101
